p cnf 444 596
-111 -112 0
-111 -113 0
-111 -114 0
-112 -113 0
-112 -114 0
-113 -114 0
-121 -122 0
-121 -123 0
-121 -124 0
-122 -123 0
-122 -124 0
-123 -124 0
-131 -132 0
-131 -133 0
-131 -134 0
-132 -133 0
-132 -134 0
-133 -134 0
-141 -142 0
-141 -143 0
-141 -144 0
-142 -143 0
-142 -144 0
-143 -144 0
-211 -212 0
-211 -213 0
-211 -214 0
-212 -213 0
-212 -214 0
-213 -214 0
-221 -222 0
-221 -223 0
-221 -224 0
-222 -223 0
-222 -224 0
-223 -224 0
-231 -232 0
-231 -233 0
-231 -234 0
-232 -233 0
-232 -234 0
-233 -234 0
-241 -242 0
-241 -243 0
-241 -244 0
-242 -243 0
-242 -244 0
-243 -244 0
-311 -312 0
-311 -313 0
-311 -314 0
-312 -313 0
-312 -314 0
-313 -314 0
-321 -322 0
-321 -323 0
-321 -324 0
-322 -323 0
-322 -324 0
-323 -324 0
-331 -332 0
-331 -333 0
-331 -334 0
-332 -333 0
-332 -334 0
-333 -334 0
-341 -342 0
-341 -343 0
-341 -344 0
-342 -343 0
-342 -344 0
-343 -344 0
-411 -412 0
-411 -413 0
-411 -414 0
-412 -413 0
-412 -414 0
-413 -414 0
-421 -422 0
-421 -423 0
-421 -424 0
-422 -423 0
-422 -424 0
-423 -424 0
-431 -432 0
-431 -433 0
-431 -434 0
-432 -433 0
-432 -434 0
-433 -434 0
-441 -442 0
-441 -443 0
-441 -444 0
-442 -443 0
-442 -444 0
-443 -444 0
111 112 113 114 0
121 122 123 124 0
131 132 133 134 0
141 142 143 144 0
211 212 213 214 0
221 222 223 224 0
231 232 233 234 0
241 242 243 244 0
311 312 313 314 0
321 322 323 324 0
331 332 333 334 0
341 342 343 344 0
411 412 413 414 0
421 422 423 424 0
431 432 433 434 0
441 442 443 444 0
-112 -112 0
-113 -113 0
-114 -114 0
-111 -121 0
-113 -123 0
-114 -124 0
-111 -131 0
-112 -132 0
-114 -134 0
-111 -141 0
-112 -142 0
-113 -143 0
-122 -112 0
-123 -113 0
-124 -114 0
-121 -121 0
-123 -123 0
-124 -124 0
-121 -131 0
-122 -132 0
-124 -134 0
-121 -141 0
-122 -142 0
-123 -143 0
-132 -112 0
-133 -113 0
-134 -114 0
-131 -121 0
-133 -123 0
-134 -124 0
-131 -131 0
-132 -132 0
-134 -134 0
-131 -141 0
-132 -142 0
-133 -143 0
-142 -112 0
-143 -113 0
-144 -114 0
-141 -121 0
-143 -123 0
-144 -124 0
-141 -131 0
-142 -132 0
-144 -134 0
-141 -141 0
-142 -142 0
-143 -143 0
-212 -212 0
-213 -213 0
-214 -214 0
-211 -221 0
-213 -223 0
-214 -224 0
-211 -231 0
-212 -232 0
-214 -234 0
-211 -241 0
-212 -242 0
-213 -243 0
-222 -212 0
-223 -213 0
-224 -214 0
-221 -221 0
-223 -223 0
-224 -224 0
-221 -231 0
-222 -232 0
-224 -234 0
-221 -241 0
-222 -242 0
-223 -243 0
-232 -212 0
-233 -213 0
-234 -214 0
-231 -221 0
-233 -223 0
-234 -224 0
-231 -231 0
-232 -232 0
-234 -234 0
-231 -241 0
-232 -242 0
-233 -243 0
-242 -212 0
-243 -213 0
-244 -214 0
-241 -221 0
-243 -223 0
-244 -224 0
-241 -231 0
-242 -232 0
-244 -234 0
-241 -241 0
-242 -242 0
-243 -243 0
-312 -312 0
-313 -313 0
-314 -314 0
-311 -321 0
-313 -323 0
-314 -324 0
-311 -331 0
-312 -332 0
-314 -334 0
-311 -341 0
-312 -342 0
-313 -343 0
-322 -312 0
-323 -313 0
-324 -314 0
-321 -321 0
-323 -323 0
-324 -324 0
-321 -331 0
-322 -332 0
-324 -334 0
-321 -341 0
-322 -342 0
-323 -343 0
-332 -312 0
-333 -313 0
-334 -314 0
-331 -321 0
-333 -323 0
-334 -324 0
-331 -331 0
-332 -332 0
-334 -334 0
-331 -341 0
-332 -342 0
-333 -343 0
-342 -312 0
-343 -313 0
-344 -314 0
-341 -321 0
-343 -323 0
-344 -324 0
-341 -331 0
-342 -332 0
-344 -334 0
-341 -341 0
-342 -342 0
-343 -343 0
-412 -412 0
-413 -413 0
-414 -414 0
-411 -421 0
-413 -423 0
-414 -424 0
-411 -431 0
-412 -432 0
-414 -434 0
-411 -441 0
-412 -442 0
-413 -443 0
-422 -412 0
-423 -413 0
-424 -414 0
-421 -421 0
-423 -423 0
-424 -424 0
-421 -431 0
-422 -432 0
-424 -434 0
-421 -441 0
-422 -442 0
-423 -443 0
-432 -412 0
-433 -413 0
-434 -414 0
-431 -421 0
-433 -423 0
-434 -424 0
-431 -431 0
-432 -432 0
-434 -434 0
-431 -441 0
-432 -442 0
-433 -443 0
-442 -412 0
-443 -413 0
-444 -414 0
-441 -421 0
-443 -423 0
-444 -424 0
-441 -431 0
-442 -432 0
-444 -434 0
-441 -441 0
-442 -442 0
-443 -443 0
-111 -211 0
-112 -212 0
-113 -213 0
-114 -214 0
-111 -311 0
-112 -312 0
-113 -313 0
-114 -314 0
-111 -411 0
-112 -412 0
-113 -413 0
-114 -414 0
-121 -221 0
-122 -222 0
-123 -223 0
-124 -224 0
-121 -321 0
-122 -322 0
-123 -323 0
-124 -324 0
-121 -421 0
-122 -422 0
-123 -423 0
-124 -424 0
-131 -231 0
-132 -232 0
-133 -233 0
-134 -234 0
-131 -331 0
-132 -332 0
-133 -333 0
-134 -334 0
-131 -431 0
-132 -432 0
-133 -433 0
-134 -434 0
-141 -241 0
-142 -242 0
-143 -243 0
-144 -244 0
-141 -341 0
-142 -342 0
-143 -343 0
-144 -344 0
-141 -441 0
-142 -442 0
-143 -443 0
-144 -444 0
-211 -111 0
-212 -112 0
-213 -113 0
-214 -114 0
-211 -311 0
-212 -312 0
-213 -313 0
-214 -314 0
-211 -411 0
-212 -412 0
-213 -413 0
-214 -414 0
-221 -121 0
-222 -122 0
-223 -123 0
-224 -124 0
-221 -321 0
-222 -322 0
-223 -323 0
-224 -324 0
-221 -421 0
-222 -422 0
-223 -423 0
-224 -424 0
-231 -131 0
-232 -132 0
-233 -133 0
-234 -134 0
-231 -331 0
-232 -332 0
-233 -333 0
-234 -334 0
-231 -431 0
-232 -432 0
-233 -433 0
-234 -434 0
-241 -141 0
-242 -142 0
-243 -143 0
-244 -144 0
-241 -341 0
-242 -342 0
-243 -343 0
-244 -344 0
-241 -441 0
-242 -442 0
-243 -443 0
-244 -444 0
-311 -111 0
-312 -112 0
-313 -113 0
-314 -114 0
-311 -211 0
-312 -212 0
-313 -213 0
-314 -214 0
-311 -411 0
-312 -412 0
-313 -413 0
-314 -414 0
-321 -121 0
-322 -122 0
-323 -123 0
-324 -124 0
-321 -221 0
-322 -222 0
-323 -223 0
-324 -224 0
-321 -421 0
-322 -422 0
-323 -423 0
-324 -424 0
-331 -131 0
-332 -132 0
-333 -133 0
-334 -134 0
-331 -231 0
-332 -232 0
-333 -233 0
-334 -234 0
-331 -431 0
-332 -432 0
-333 -433 0
-334 -434 0
-341 -141 0
-342 -142 0
-343 -143 0
-344 -144 0
-341 -241 0
-342 -242 0
-343 -243 0
-344 -244 0
-341 -441 0
-342 -442 0
-343 -443 0
-344 -444 0
-411 -111 0
-412 -112 0
-413 -113 0
-414 -114 0
-411 -211 0
-412 -212 0
-413 -213 0
-414 -214 0
-411 -311 0
-412 -312 0
-413 -313 0
-414 -314 0
-421 -121 0
-422 -122 0
-423 -123 0
-424 -124 0
-421 -221 0
-422 -222 0
-423 -223 0
-424 -224 0
-421 -321 0
-422 -322 0
-423 -323 0
-424 -324 0
-431 -131 0
-432 -132 0
-433 -133 0
-434 -134 0
-431 -231 0
-432 -232 0
-433 -233 0
-434 -234 0
-431 -331 0
-432 -332 0
-433 -333 0
-434 -334 0
-441 -141 0
-442 -142 0
-443 -143 0
-444 -144 0
-441 -241 0
-442 -242 0
-443 -243 0
-444 -244 0
-441 -341 0
-442 -342 0
-443 -343 0
-444 -344 0
-111 -121 0
-112 -122 0
-111 -211 0
-112 -212 0
-111 -221 0
-112 -222 0
-121 -111 0
-122 -112 0
-121 -211 0
-122 -212 0
-121 -221 0
-122 -222 0
-211 -111 0
-212 -112 0
-211 -121 0
-212 -122 0
-211 -221 0
-212 -222 0
-221 -111 0
-222 -112 0
-221 -121 0
-222 -122 0
-221 -211 0
-222 -212 0
-131 -141 0
-132 -142 0
-131 -231 0
-132 -232 0
-131 -241 0
-132 -242 0
-141 -131 0
-142 -132 0
-141 -231 0
-142 -232 0
-141 -241 0
-142 -242 0
-231 -131 0
-232 -132 0
-231 -141 0
-232 -142 0
-231 -241 0
-232 -242 0
-241 -131 0
-242 -132 0
-241 -141 0
-242 -142 0
-241 -231 0
-242 -232 0
-311 -321 0
-312 -322 0
-311 -411 0
-312 -412 0
-311 -421 0
-312 -422 0
-321 -311 0
-322 -312 0
-321 -411 0
-322 -412 0
-321 -421 0
-322 -422 0
-411 -311 0
-412 -312 0
-411 -321 0
-412 -322 0
-411 -421 0
-412 -422 0
-421 -311 0
-422 -312 0
-421 -321 0
-422 -322 0
-421 -411 0
-422 -412 0
-331 -341 0
-332 -342 0
-331 -431 0
-332 -432 0
-331 -441 0
-332 -442 0
-341 -331 0
-342 -332 0
-341 -431 0
-342 -432 0
-341 -441 0
-342 -442 0
-431 -331 0
-432 -332 0
-431 -341 0
-432 -342 0
-431 -441 0
-432 -442 0
-441 -331 0
-442 -332 0
-441 -341 0
-442 -342 0
-441 -431 0
-442 -432 0
111 0
243 0
332 0
422 0
